NAME: ch150
COMMENT: solucao exata obtida pelo professor utilizando um solver branch-and-cut
COMMENT: 40.955s
TYPE: TOUR
DIMENSION: 150
TOTAL_WEIGHT: 6528
TOUR_SECTION
007
084
030
063
048
073
076
034
087
001
098
103
082
095
107
005
100
143
097
146
026
075
018
142
085
065
132
137
050
055
058
141
083
056
090
046
092
054
138
134
131
032
023
038
067
043
109
051
020
025
110
081
029
086
135
070
108
102
114
099
019
002
037
006
028
009
042
120
047
139
040
053
118
024
012
116
101
041
057
039
127
069
036
061
011
148
130
017
066
060
140
117
129
027
031
123
074
013
106
091
119
068
128
045
071
044
064
112
136
145
144
147
049
072
080
014
122
077
133
015
078
021
150
115
004
104
022
125
149
062
003
113
010
094
088
121
079
059
016
111
105
033
126
052
093
124
035
096
089
008
EOF